CMD:
./solvers/bin/cadical --plain --no-reduce -t 1600 ./data/cnfs//circular_pointer_top_w32_d32_e0/circular_pointer_top_w32_d32_e0.22.cnf

c --- [ banner ] -------------------------------------------------------------
c 
c CaDiCaL SAT Solver
c Copyright (c) 2016-2024
c A. Biere, M. Fleury, N. Froleyks, K. Fazekas, F. Pollitt, T. Faller
c JKU Linz, University of Freiburg, TU Wien
c 
c Version 2.1.3 5296d3d2a9bf48c154ab2acb5e44625776d821bf
c g++ (Gentoo 12.3.1_p20230526 p2) 12.3.1 20230526 -Wall -Wextra -O3 -DNDEBUG
c Sat Aug 9 07:26:21 PDT 2025 Linux cedar2.int.cedar.computecanada.ca 5.14.0-362.24.2.el9_3.x86_64 x86_64
c 
c --- [ limit ] --------------------------------------------------------------
c 
c setting time limit to 1600 seconds real time (due to '-t 1600')
c 
c --- [ parsing input ] ------------------------------------------------------
c 
c reading DIMACS file from './data/cnfs//circular_pointer_top_w32_d32_e0/circular_pointer_top_w32_d32_e0.22.cnf'
c opening file to read './data/cnfs//circular_pointer_top_w32_d32_e0/circular_pointer_top_w32_d32_e0.22.cnf'
c found 'p cnf 189812 561316' header
c parsed 561316 clauses in 0.08 seconds process time
c 
c --- [ options ] ------------------------------------------------------------
c 
c   --compact=false                (different from default 'true')
c   --decompose=false              (different from default 'true')
c   --deduplicate=false            (different from default 'true')
c   --elim=false                   (different from default 'true')
c   --probe=false                  (different from default 'true')
c   --reduce=false                 (different from default 'true')
c   --subsume=false                (different from default 'true')
c   --ternary=false                (different from default 'true')
c   --transred=false               (different from default 'true')
c   --vivify=false                 (different from default 'true')
c 
c --- [ solving ] ------------------------------------------------------------
c 
c time measured in process time since initialization
c 
c  seconds  reductions  redundant  irredundant
c         MB    restarts       trail       variables
c          level   conflicts       glue          remaining
c 
c *  0.08 86  0 0   0    0    0  0% 0 509426 162707 86%
c {  0.11 88  0 0   0    0    0  0% 0 509426 162707 86%
c i  0.12 89 1671 0   0   25   23 56% 7 509426 162527 86%
c i  0.17 89 1305 0   5  355  311 43% 3 509426 161875 85%
c i  0.17 89 1298 0   5  357  312 42% 3 509426 161713 85%
c i  0.22 90 1167 0   8  426  371 44% 3 509426 161567 85%
c i  0.38 90 795 0  40  641  538 48% 5 509426 159300 84%
c i  0.38 90 793 0  41  643  539 48% 5 509426 156504 82%
c i  0.38 90 790 0  42  645  540 48% 5 509426 155579 82%
c }  0.53 90 517 0  62 1001  879 48% 5 509426 155579 82%
c [  0.53 90  0 0  62 1001  879  0% 0 509426 155579 82%
c O  0.55 90 2192 0  62 1002  880 88% 3 509426 155579 82%
c i  0.78 90 1606 0  62 1818 1360 57% 9 509426 155051 82%
c i  0.78 90 1601 0  62 1827 1365 57% 10 509426 152120 80%
c i  0.80 90 1586 0  62 1888 1390 56% 12 509426 146877 77%
c i  0.92 90 1485 0  62 2359 1707 54% 15 509426 145964 77%
c i  1.00 90 1326 0  63 2605 1915 54% 14 509426 145676 77%
c i  1.00 90 1322 0  63 2609 1918 54% 14 509426 145674 77%
c i  1.05 90 1160 0  63 2773 2054 53% 13 509426 145655 77%
c ]  1.17 90 994 0  63 3004 2258 54% 13 509426 145655 77%
c 
c  seconds   reductions  redundant  irredundant
c         MB     restarts       trail       variables
c           level   conflicts       glue          remaining
c 
c {  1.17 90 517 0  63 3004 2258 48% 5 509426 145655 77%
c F  1.17 90 516 0  63 3005 2259 48% 5 509426 145655 77%
c i  1.17 90 505 0  63 3028 2279 48% 5 509426 145653 77%
c i  1.17 90 501 0  63 3035 2284 48% 5 509426 145642 77%
c i  1.39 91 309 0 111 3787 2965 44% 6 509426 145636 77%
c i  1.39 91 309 0 111 3793 2969 44% 6 509426 145630 77%
c i  1.50 91 275 0 134 4068 3224 45% 6 509426 145344 77%
c i  1.65 91 255 0 176 4278 3403 45% 6 509426 145337 77%
c i  1.78 91 241 0 204 4444 3548 45% 7 509426 145335 77%
c i  1.78 91 241 0 205 4446 3549 45% 7 509426 145054 76%
c i  1.78 91 241 0 205 4449 3551 45% 7 509426 144669 76%
c i  1.84 91 210 0 218 4932 4010 47% 6 509426 144319 76%
c i  1.92 91 206 0 240 5023 4089 47% 7 509426 143762 76%
c i  2.43 91 176 0 370 5934 4905 49% 8 509426 143441 76%
c #  2.52 91 174 0 388 6007 4974 49% 8 509426 143441 76%
c i  2.53 91 174 0 389 6015 4978 49% 8 509426 142888 75%
c }  2.61 91 147 0 391 7005 5951 51% 7 509426 142888 75%
c [  2.61 91 994 0 391 7005 5951 54% 13 509426 142888 75%
c i  3.21 92 490 0 392 8903 7726 55% 12 509426 142885 75%
c I  3.31 92 380 0 393 10008 8741 54% 10 509426 142885 75%
c 
c  seconds   reductions    redundant   irredundant
c         MB     restarts         trail        variables
c           level    conflicts        glue           remaining
c 
c ]  5.48 93 198 0 396 15005 12989 54% 11 509426 142885 75%
c {  5.48 93 147 0 396 15005 12989 51% 7 509426 142885 75%
c B  5.49 93 147 0 396 15011 12995 51% 7 509426 142885 75%
c i  5.55 93 161 0 403 15562 13517 51% 7 509426 142879 75%
... skipped 89 lines ...
c i 36.94 116 42 0 4699 109441 91453 50% 8 340740 127299 67%
c i 37.49 116 41 0 4772 110810 92385 50% 8 340740 126764 67%
c 
c  seconds   reductions      redundant  irredundant
c          MB    restarts           trail       variables
c           level     conflicts         glue          remaining
c 
c i 37.95 116 41 0 4877 111916 93369 50% 8 340740 126439 67%
c i 38.15 116 40 0 4910 112485 93852 50% 8 340740 126431 67%
c i 39.87 116 40 0 5220 116266 97122 50% 8 340740 126004 66%
c i 40.01 116 40 0 5255 116590 97428 50% 8 340740 125902 66%
c i 40.81 116 39 0 5436 118024 98670 50% 8 340740 125897 66%
c i 40.81 116 39 0 5436 118025 98670 50% 8 340740 125896 66%
c W 42.10 119 39 0 5637 120026 86132 50% 8 327433 125896 66%
c i 42.48 119 39 0 5743 120649 86681 50% 8 327433 125889 66%
c i 42.70 119 39 0 5807 120896 86916 50% 8 327433 125878 66%
c i 43.84 119 38 0 6040 122879 88573 50% 8 327433 125872 66%
c i 44.31 119 38 0 6168 123865 89477 50% 8 327433 125803 66%
c i 45.32 119 38 0 6412 125528 90989 50% 8 327433 125797 66%
c i 45.32 119 38 0 6412 125530 90990 50% 8 327433 125790 66%
c } 45.94 119 38 0 6542 127006 92371 50% 8 327433 125788 66%
c [ 45.94 119 58 0 6542 127006 92371 49% 12 327433 125788 66%
c i 46.46 119 56 0 6543 128887 94095 49% 12 327433 125786 66%
c B 49.72 119 50 0 6547 136028 99763 50% 12 327433 125786 66%
c W 55.53 126 41 0 6552 153029 113987 53% 12 326976 125786 66%
c i 56.09 126 40 0 6552 155056 115837 53% 12 326976 125779 66%
c i 58.72 126 37 0 6552 163569 123406 53% 11 326976 125759 66%
c 
c  seconds   reductions      redundant    irredundant
c          MB    restarts            trail        variables
c           level     conflicts          glue           remaining
c 
c I 61.35 126 35 0 6554 171030 129437 53% 11 326976 125684 66%
c i 62.52 126 34 0 6556 173752 131652 53% 11 326976 125138 66%
c B 69.79 126 29 0 6565 190032 144732 53% 11 326976 125138 66%
c i 72.62 126 28 0 6567 196590 149822 53% 11 326976 125123 66%
c i 78.37 126 25 0 6573 209139 157632 52% 10 326976 125052 66%
c W 79.00 130 25 0 6573 210038 131594 53% 10 324803 125052 66%
c i 81.68 130 24 0 6575 216124 135825 52% 10 324803 124998 66%
c i 84.29 130 23 0 6580 222008 140185 52% 10 324803 123008 65%
c i 84.36 130 23 0 6580 222183 140231 52% 10 324803 123000 65%
c i 84.37 130 23 0 6580 222210 140237 52% 10 324803 121228 64%
c i 84.37 130 23 0 6580 222215 140240 52% 10 324803 120497 63%
c i 84.37 130 23 0 6580 222219 140242 52% 10 324803 114707 60%
c ] 84.37 130 23 0 6580 222221 140242 52% 10 324803 113357 60%
c 0 84.37 130 23 0 6580 222221 140242 52% 10 324803 113357 60%
c 
c --- [ result ] -------------------------------------------------------------
c 
s UNSATISFIABLE
c 
c --- [ run-time profiling ] -------------------------------------------------
c 
c process time taken by individual solving procedures
c (percentage relative to process time for solving)
c 
c        84.29  100.00% search
c        51.41   60.99% stable
c        31.74   37.66% unstable
c         1.11    1.32% walk
c         0.08    0.10% parse
c         0.03    0.03% lucky
c         0.00    0.00% simplify
c   =================================
c        84.29   99.90% solve
c 
c last line shows process time for solving
c (percentage relative to total process time)
c 
c --- [ statistics ] ---------------------------------------------------------
c 
c chronological:             48626        21.88 %  of conflicts
c conflicts:                222221      2636.39    per second
c decisions:                943985     11199.29    per second
c fixed:                     76454        40.28 %  of all variables
c learned:                  216012        97.21 %  per conflict
c learned_lits:           15756085       100.00 %  learned literals
c minimized:                     0         0.00 %  learned literals
c shrunken:                4063836        25.79 %  learned literals
c minishrunken:            3345731        21.23 %  learned literals
c otfs:                        796         0.36 %  of conflict
c propagations:         1070983609        12.71 M  per second
c rephased:                     20     11111.05    interval
c restarts:                   6580        33.77    interval
c stabilizing:                   4        61.74 %  of conflicts
c subsumed:                  32007         4.41 %  of all clauses
c strengthened:                756         0.10 %  of all clauses
c walked:                        6     37036.83    interval
c 
c seconds are measured in process time for solving
c 
c --- [ resources ] ----------------------------------------------------------
c 
c total process time since initialization:        84.37    seconds
c total real time since initialization:           84.79    seconds
c maximum resident set size of process:          155.43    MB
c 
c --- [ shutting down ] ------------------------------------------------------
c 
c exit 20
